CMD:
./solvers/bin/cadical --plain --no-reduce -t 1600 ./data/cnfs//bc57sensorsp0/bc57sensorsp0.94.cnf

c --- [ banner ] -------------------------------------------------------------
c 
c CaDiCaL SAT Solver
c Copyright (c) 2016-2024
c A. Biere, M. Fleury, N. Froleyks, K. Fazekas, F. Pollitt, T. Faller
c JKU Linz, University of Freiburg, TU Wien
c 
c Version 2.1.3 5296d3d2a9bf48c154ab2acb5e44625776d821bf
c g++ (Gentoo 12.3.1_p20230526 p2) 12.3.1 20230526 -Wall -Wextra -O3 -DNDEBUG
c Sat Aug 9 07:26:21 PDT 2025 Linux cedar2.int.cedar.computecanada.ca 5.14.0-362.24.2.el9_3.x86_64 x86_64
c 
c --- [ limit ] --------------------------------------------------------------
c 
c setting time limit to 1600 seconds real time (due to '-t 1600')
c 
c --- [ parsing input ] ------------------------------------------------------
c 
c reading DIMACS file from './data/cnfs//bc57sensorsp0/bc57sensorsp0.94.cnf'
c opening file to read './data/cnfs//bc57sensorsp0/bc57sensorsp0.94.cnf'
c found 'p cnf 170215 482387' header
c parsed 482387 clauses in 0.08 seconds process time
c 
c --- [ options ] ------------------------------------------------------------
c 
c   --compact=false                (different from default 'true')
c   --decompose=false              (different from default 'true')
c   --deduplicate=false            (different from default 'true')
c   --elim=false                   (different from default 'true')
c   --probe=false                  (different from default 'true')
c   --reduce=false                 (different from default 'true')
c   --subsume=false                (different from default 'true')
c   --ternary=false                (different from default 'true')
c   --transred=false               (different from default 'true')
c   --vivify=false                 (different from default 'true')
c 
c --- [ solving ] ------------------------------------------------------------
c 
c time measured in process time since initialization
c 
c  seconds  reductions  redundant  irredundant
c         MB    restarts       trail       variables
c          level   conflicts       glue          remaining
c 
c *  0.08 79  0 0   0    0    0  0% 0 465394 124346 73%
c {  0.11 81  0 0   0    0    0  0% 0 465394 124346 73%
c i  0.11 81 94 0   0   13   10 29% 7 465394 124209 73%
c i  0.22 81 93 0   0  214  205 42% 3 465394 124200 73%
c i  0.27 81 143 0   5  475  442 50% 3 465394 124199 73%
c i  0.27 81 143 0   5  477  443 50% 3 465394 124188 73%
c i  0.28 81 142 0   6  480  445 49% 3 465394 124062 73%
c i  0.35 82 120 0  16  599  555 51% 3 465394 124052 73%
c i  0.35 82 120 0  16  600  555 51% 3 465394 124042 73%
c i  0.35 82 119 0  17  601  555 50% 3 465394 124033 73%
c i  0.35 82 119 0  17  602  555 50% 3 465394 124024 73%
c i  0.35 82 118 0  19  613  565 50% 3 465394 124018 73%
c i  0.35 82 118 0  20  614  565 50% 3 465394 124012 73%
c i  0.35 82 118 0  20  616  566 50% 3 465394 124006 73%
c i  0.40 82 93 0  28  884  814 47% 3 465394 123951 73%
c i  0.40 82 92 0  28  888  817 47% 3 465394 123944 73%
c i  0.40 82 92 0  28  889  817 47% 3 465394 123937 73%
c i  0.41 82 90 0  28  924  848 47% 3 465394 123846 73%
c }  0.44 82 85 0  32 1001  918 46% 3 465394 123846 73%
c [  0.44 82  0 0  32 1001  918  0% 0 465394 123846 73%
c 
c  seconds  reductions  redundant  irredundant
c         MB    restarts       trail       variables
c          level   conflicts       glue          remaining
c 
c O  0.44 82  1 0  32 1002  918 51% 0 465394 123846 73%
c i  0.44 82  1 0  32 1002  918 51% 0 465394 123751 73%
c i  0.45 82  1 0  32 1003  918 51% 0 465394 123655 73%
c ]  2.09 82 87 0  33 3001 2757 66% 6 465394 123648 73%
c {  2.09 82 85 0  33 3001 2757 46% 3 465394 123648 73%
c F  2.11 82 84 0  34 3006 2760 46% 3 465394 123648 73%
c i  2.18 83 79 0  64 3130 2871 46% 3 465394 123646 73%
c i  2.38 83 67 0  94 3456 3169 45% 3 465394 120247 71%
c i  2.54 83 60 0 140 3785 3478 44% 3 465394 120192 71%
c i  2.54 83 59 0 140 3803 3492 44% 3 465394 120138 71%
c i  2.55 83 59 0 140 3832 3519 44% 3 465394 120083 71%
c i  2.55 83 58 0 140 3836 3522 44% 3 465394 120028 71%
c i  2.66 83 55 0 164 3990 3655 44% 3 465394 119973 70%
c i  2.79 83 54 0 185 4091 3749 44% 3 465394 119887 70%
c i  2.79 83 54 0 186 4096 3753 44% 3 465394 119867 70%
c i  2.87 83 53 0 203 4164 3813 44% 3 465394 119815 70%
c i  2.94 83 52 0 223 4255 3891 44% 3 465394 119764 70%
c i  3.00 83 52 0 235 4304 3934 45% 3 465394 119092 70%
c i  3.03 83 51 0 238 4342 3970 45% 3 465394 119044 70%
c i  3.03 83 51 0 238 4343 3970 45% 3 465394 118996 70%
c 
c  seconds  reductions  redundant  irredundant
c         MB    restarts       trail       variables
c          level   conflicts       glue          remaining
c 
c i  3.26 83 49 0 282 4537 4143 45% 3 465394 118948 70%
c i  3.30 83 49 0 286 4559 4160 45% 3 465394 118934 70%
c i  3.35 83 48 0 292 4591 4179 45% 3 465394 118924 70%
c i  3.35 83 48 0 292 4592 4179 45% 3 465394 118914 70%
... skipped 3 lines ...
c i  3.44 83 47 0 304 4693 4254 45% 3 465394 118847 70%
c i  3.45 83 47 0 306 4702 4261 45% 3 465394 118764 70%
c i  3.49 83 47 0 310 4753 4306 45% 3 465394 118628 70%
c i  3.52 83 47 0 316 4775 4326 46% 3 465394 118610 70%
c i  3.55 83 46 0 325 4805 4355 46% 3 465394 118587 70%
c i  3.55 83 46 0 325 4807 4356 46% 3 465394 118529 70%
c i  4.05 83 43 0 418 5205 4716 46% 3 465394 118504 70%
c i  4.24 83 41 0 428 5414 4899 46% 4 465394 118455 70%
c i  4.29 83 41 0 441 5463 4945 46% 4 465394 118433 70%
c i  4.38 83 40 0 454 5523 4994 46% 4 465394 118377 70%
c i  4.41 83 40 0 457 5538 5008 46% 4 465394 118283 69%
c i  4.41 83 40 0 458 5540 5009 46% 4 465394 118144 69%
c i  4.53 83 40 0 469 5664 5119 46% 4 465394 118119 69%
c 
c  seconds  reductions  redundant  irredundant
c         MB    restarts       trail       variables
c          level   conflicts       glue          remaining
c 
c i  4.56 83 40 0 474 5684 5135 46% 4 465394 117819 69%
c i  4.60 83 39 0 482 5714 5163 46% 4 465394 117730 69%
c i  4.94 83 38 0 541 6005 5416 47% 4 465394 117692 69%
c #  4.95 83 38 0 542 6009 5420 47% 4 465394 117692 69%
c i  5.32 83 37 0 602 6240 5631 47% 4 465394 117684 69%
c i  5.32 83 37 0 602 6242 5632 47% 4 465394 117677 69%
c i  5.32 83 37 0 603 6247 5636 47% 4 465394 117665 69%
c i  5.47 83 37 0 623 6355 5713 47% 4 465394 117597 69%
c i  5.49 83 36 0 623 6372 5718 47% 4 465394 117557 69%
c i  5.53 83 36 0 623 6404 5746 47% 4 465394 117532 69%
c i  5.59 83 36 0 624 6458 5784 47% 4 465394 117294 69%
c i  5.77 84 36 0 645 6559 5880 47% 4 465394 117268 69%
c i  5.97 84 35 0 672 6746 6054 47% 4 465394 117103 69%
c }  6.16 84 34 0 681 7002 6283 48% 4 465394 117103 69%
c [  6.16 84 87 0 681 7002 6283 66% 6 465394 117103 69%
c i  6.39 84 83 0 681 7118 6393 66% 5 465394 117028 69%
c i  6.61 84 78 0 682 7267 6478 66% 5 465394 116931 69%
c i  6.64 84 77 0 682 7287 6496 66% 5 465394 116911 69%
c i  6.85 84 75 0 682 7362 6559 65% 6 465394 116886 69%
c i  6.94 84 74 0 682 7407 6591 65% 6 465394 116856 69%
c 
c  seconds  reductions  redundant  irredundant
c         MB    restarts       trail       variables
c          level   conflicts       glue          remaining
c 
c i  7.10 84 72 0 682 7499 6653 65% 6 465394 116842 69%
c i  7.27 84 70 0 682 7588 6721 65% 6 465394 116794 69%
c i  7.36 84 69 0 682 7621 6730 65% 6 465394 114956 68%
c ]  7.37 84 69 0 682 7625 6731 65% 6 465394 110232 65%
c 0  7.37 84 69 0 682 7625 6731 65% 6 465394 110232 65%
c 
c --- [ result ] -------------------------------------------------------------
c 
s UNSATISFIABLE
c 
c --- [ run-time profiling ] -------------------------------------------------
c 
c process time taken by individual solving procedures
c (percentage relative to process time for solving)
c 
c         7.29  100.00% search
c         4.40   60.35% unstable
c         2.86   39.22% stable
c         0.08    1.07% parse
c         0.03    0.43% lucky
c         0.00    0.00% simplify
c   =================================
c         7.29   98.93% solve
c 
c last line shows process time for solving
c (percentage relative to total process time)
c 
c --- [ statistics ] ---------------------------------------------------------
c 
c chronological:              3264        42.81 %  of conflicts
c conflicts:                  7625      1045.89    per second
c decisions:                 32654      4479.02    per second
c fixed:                     59983        35.24 %  of all variables
c learned:                    7261        95.23 %  per conflict
c learned_lits:             347735       100.00 %  learned literals
c minimized:                     0         0.00 %  learned literals
c shrunken:                  99477        28.61 %  learned literals
c minishrunken:              71958        20.69 %  learned literals
c otfs:                         47         0.62 %  of conflict
c propagations:           61938909         8.50 M  per second
c rephased:                      3      2541.67    interval
c restarts:                    682        11.18    interval
c stabilizing:                   2        34.40 %  of conflicts
c subsumed:                    458         0.10 %  of all clauses
c strengthened:                 46         0.01 %  of all clauses
c 
c seconds are measured in process time for solving
c 
c --- [ resources ] ----------------------------------------------------------
c 
c total process time since initialization:         7.37    seconds
c total real time since initialization:            7.40    seconds
c maximum resident set size of process:           82.27    MB
c 
c --- [ shutting down ] ------------------------------------------------------
c 
c exit 20
